707579
792123
563471
479426
462495
566024
644709
244219
852875
487007
877839
982505
187351
830866
264829
343073
255705
867019
946379
326457
878471
539977
676719
525463
312756
873207
693516
981077
583158
747691
941859
652558
7657
980536
66537
568072
394188
429424
570035
465854
835976
94713
497101
80584
36433
740170
788331
633897
311526
253699
45111
435957
308082
55847
494793
377821
746197
160887
175285
302616
406140
771563
807485
249968
286828
913103
219239
572839
490079
718841
883242
882564
923077
774563
126210
692413
127595
127785
862627
484162
522297
377696
510026
156068
968405
429264
400302
25952
938726
177616
200085
121420
339763
272445
894660
341789
277289
304150
831951
917522
